sat
(
(define-fun J () String "aaaaaaaaaaaabaaaabaabb")
(define-fun H () String "")
(define-fun I () String "")
(define-fun L () String "")
(define-fun N () String "")
(define-fun M () String "")
(define-fun P () String "aaaaaaaaaaaaaaaabaaaabaabbaaaabaaaabbbaa")
(define-fun Q () String "")
)
